$rem
GEOM_OPT_PRINT  6
JOBTYPE         opt
METHOD  wb97xD
BASIS   cc-pVDZ
MEM_TOTAL       100000
MEM_STATIC      2000
GEOM_OPT_TOL_GRADIENT 150
GEOM_OPT_TOL_DISPLACEMENT       600
GEOM_OPT_TOL_ENERGY     50
$end

$molecule
0 1
C         -1.28808       -1.11097        0.00913
N          0.04361       -0.68874        0.00617
N         -2.25819       -0.21971        0.00255
N         -1.54664       -2.42103        0.02147
C         -0.48939       -3.21325        0.02872
N          0.80127       -2.91971        0.02462
C          1.09024       -1.61893        0.01303
N          2.33908       -1.19132        0.01125
C         -1.91557        1.08461       -0.01119
N         -0.66424        1.55358       -0.02033
C          0.33165        0.67327       -0.00919
N          1.59647        1.07514       -0.01580
C          2.55162        0.13774       -0.00260
O         -0.69568       -4.55125        0.04168
C         -1.96794       -5.07390        0.05152
F         -1.81312       -6.39089        0.06461
F         -2.65806       -4.73978       -1.03122
F         -2.65033       -4.71732        1.13192
C         -3.03469        2.05054       -0.03064
C         -4.32746        1.52066       -0.19597
H         -4.42905        0.44035       -0.28821
C         -5.44699        2.33326       -0.24064
H         -6.43519        1.88694       -0.37019
C         -5.31371        3.71924       -0.11222
C         -4.03146        4.24151        0.06548
H         -3.91897        5.32276        0.18140
C         -2.87637        3.45312        0.10845
C          3.96474        0.57312       -0.01843
C          4.93505       -0.42773       -0.20222
H          4.59282       -1.45642       -0.30542
C          6.28704       -0.13109       -0.25276
H          7.01322       -0.93273       -0.40178
C          6.72041        1.18966       -0.10997
C          5.75537        2.17974        0.08848
H          6.08742        3.21339        0.21699
C          4.38242        1.92014        0.13698
C          8.18054        1.54555       -0.18775
H          8.81761        0.69343        0.08757
H          8.42407        2.38868        0.47442
H          8.44958        1.84313       -1.21447
C         -6.51527        4.62229       -0.18437
H         -6.33160        5.58246        0.31763
H         -7.39610        4.15265        0.27653
H         -6.76976        4.83885       -1.23483
C          3.46421        3.09300        0.37164
H          2.79121        3.25584       -0.47985
H          4.05839        4.00188        0.53973
H          2.81090        2.92997        1.23898
C         -1.56209        4.16157        0.31930
H         -0.89280        4.03420       -0.54129
H         -1.73967        5.23392        0.48099
H         -1.01799        3.75615        1.18233
$end

@@@

$molecule
read
$end


$rem
JOBTYPE         freq
METHOD wb97xD 
BASIS   cc-pVDZ
MEM_TOTAL       100000
MEM_STATIC      2000
$end

