$rem
GEOM_OPT_PRINT	6
JOBTYPE		opt
METHOD  wb97xD
BASIS   cc-pVDZ
CIS_N_ROOTS	5
CIS_SINGLETS	false
CIS_TRIPLETS	true
CIS_STATE_DERIV	1
MEM_TOTAL       4000
MEM_STATIC      100
RPA     false
GEOM_OPT_TOL_GRADIENT 150
GEOM_OPT_TOL_DISPLACEMENT       600
GEOM_OPT_TOL_ENERGY     50
$end

$molecule
0 1
N
C  1 1.404168
N  2 1.310701 1 120.642903
N  2 1.335393 1 118.561002 3 -178.915096 0
C  4 1.325045 2 116.165895 1 -3.728388 0
N  5 1.331979 4 128.971399 2 -7.906972 0
C  6 1.331121 5 115.701592 4 8.053777 0
N  7 1.315280 6 120.560413 5 -177.877479 0
O  5 1.355957 4 118.999316 2 175.723480 0
C  8 1.367235 7 118.432147 6 178.079180 0
N  10 1.346742 8 122.756358 7 -10.935134 0
C  11 1.322480 10 119.279281 8 11.826409 0
N  12 1.321982 11 121.481341 10 -179.713223 0
C  13 1.346649 12 119.293426 11 179.590485 0
C  9 1.374398 5 120.758379 4 -3.896243 0
F  15 1.323998 9 105.825398 5 -177.441660 0
F  15 1.326723 9 112.194802 5 64.078111 0
F  15 1.328197 9 112.054258 5 -59.036989 0
C  10 1.470099 8 116.967228 7 174.297579 0
C  19 1.406665 10 117.536819 8 10.944496 0
H  20 1.089159 19 118.355720 10 -0.134654 0
C  20 1.386118 19 121.644269 10 179.630772 0
H  22 1.092141 20 119.607729 19 -179.639702 0
C  22 1.396994 20 120.371477 19 0.432539 0
C  24 1.397158 22 117.823577 20 0.513425 0
H  25 1.093585 24 118.596598 22 178.677657 0
C  25 1.397043 24 123.427234 22 -0.735097 0
C  14 1.470245 13 120.126280 12 174.012570 0
C  28 1.407433 14 117.394668 13 166.128652 0
H  29 1.089126 28 118.324022 14 0.073071 0
C  29 1.385105 28 121.701126 14 -179.817926 0
H  31 1.092293 29 119.554491 28 179.905510 0
C  31 1.397855 29 120.375556 28 -0.328671 0
C  33 1.396136 31 117.796224 29 -0.488576 0
H  34 1.093528 33 118.600728 31 -178.854661 0
C  34 1.398333 33 123.452295 31 0.658252 0
C  24 1.505328 22 121.399380 20 -178.743913 0
H  37 1.099194 24 111.468419 22 -25.326214 0
H  37 1.099625 24 111.391049 22 -146.333660 0
H  37 1.102394 24 110.681944 22 94.254558 0
C  33 1.505364 31 121.093670 29 178.691446 0
H  41 1.099215 33 111.585666 31 156.484808 0
H  41 1.099653 33 111.344478 31 35.389397 0
H  41 1.102456 33 110.572139 31 -83.867355 0
C  27 1.508122 25 117.801384 24 178.758102 0
H  45 1.098282 27 111.692338 25 113.189629 0
H  45 1.098879 27 109.949407 25 -7.789231 0
H  45 1.099295 27 111.791442 25 -128.193869 0
C  36 1.508476 34 117.719400 33 -178.816482 0
H  49 1.098061 36 111.720729 34 -114.994170 0
H  49 1.098910 36 109.883120 34 5.995837 0
H  49 1.099317 36 111.645248 34 126.365490 0
$end


@@@

$molecule
read
$end

$rem
JOBTYPE         freq
METHOD  wb97xD
BASIS   cc-pVDZ
CIS_STATE_DERIV     1
CIS_N_ROOTS     5
CIS_SINGLETS    false
CIS_TRIPLETS    true
MEM_TOTAL       4000
MEM_STATIC      100
RPA     false
MAX_SCF_CYCLES 600
MAX_CIS_CYCLES 600
$end

