$rem
GEOM_OPT_PRINT	6
JOBTYPE		opt
METHOD  wb97xD
BASIS   cc-pVDZ
CIS_N_ROOTS	5
CIS_SINGLETS	true
CIS_TRIPLETS	false
CIS_STATE_DERIV	1
MEM_TOTAL       4000
MEM_STATIC      100
GEOM_OPT_TOL_GRADIENT 150
GEOM_OPT_TOL_DISPLACEMENT       600
GEOM_OPT_TOL_ENERGY     50
$end

$molecule
0 1
N
C  1 1.417861
N  2 1.313295 1 120.272117
N  2 1.332068 1 119.022990 3 -178.466841 0
C  4 1.326647 2 116.354482 1 -4.772744 0
N  5 1.330206 4 128.078032 2 -12.202015 0
C  6 1.330573 5 116.006590 4 12.277527 0
N  7 1.314456 6 120.629782 5 -177.112857 0
C  3 1.358227 2 118.574362 1 4.413795 0
N  9 1.349131 3 122.048582 2 15.263876 0
C  10 1.321550 9 118.855828 3 -16.377127 0
N  11 1.323175 10 120.641703 9 179.749717 0
C  12 1.348033 11 118.872004 10 -179.886117 0
O  5 1.358863 4 119.307835 2 173.552271 0
C  14 1.371444 5 120.627981 4 -5.189922 0
F  15 1.324677 14 105.954741 5 -176.628816 0
F  15 1.327477 14 112.296295 5 64.831958 0
F  15 1.329568 14 112.111502 5 -58.191159 0
C  9 1.468967 3 117.442408 2 -171.268573 0
C  19 1.407256 9 117.389975 3 -8.801384 0
H  20 1.089241 19 118.324369 9 -0.089609 0
C  20 1.384642 19 121.610809 9 -179.791465 0
H  22 1.092196 20 119.587603 19 179.768605 0
C  22 1.398364 20 120.335000 19 -0.389149 0
C  24 1.396254 22 117.892632 20 -0.537194 0
H  25 1.093456 24 118.627643 22 -178.805086 0
C  25 1.398253 24 123.378718 22 0.767301 0
C  13 1.468987 12 120.109499 11 -170.007370 0
C  28 1.406337 13 117.493829 12 -163.179323 0
H  29 1.089312 28 118.315910 13 0.130944 0
C  29 1.385849 28 121.560321 13 179.759531 0
H  31 1.092063 29 119.642742 28 -179.491145 0
C  31 1.397327 29 120.331124 28 0.464056 0
C  33 1.397250 31 117.918889 29 0.511082 0
H  34 1.093520 33 118.618886 31 178.696916 0
C  34 1.396915 33 123.362871 31 -0.804800 0
C  33 1.505187 31 121.359606 29 -178.709223 0
H  37 1.099095 33 111.478582 31 -24.176401 0
H  37 1.099662 33 111.386190 31 -145.215229 0
H  37 1.102328 33 110.653360 31 95.425749 0
C  24 1.505201 22 121.031440 20 178.577758 0
H  41 1.099150 24 111.573786 22 156.417972 0
H  41 1.099582 24 111.353153 22 35.275303 0
H  41 1.102429 24 110.511419 22 -83.951773 0
C  36 1.507996 34 117.926325 33 178.900534 0
H  45 1.098215 36 111.643265 34 113.441097 0
H  45 1.098910 36 109.974385 34 -7.565436 0
H  45 1.099405 36 111.763223 34 -127.879475 0
C  27 1.508183 25 117.889075 24 -178.946196 0
H  49 1.098132 27 111.594640 25 -114.124907 0
H  49 1.098910 27 109.915994 25 6.793111 0
H  49 1.099287 27 111.691993 25 127.192556 0
$end

@@@

$molecule
read
$end

$rem
JOBTYPE         freq
METHOD  wb97xD
BASIS   cc-pVDZ
CIS_STATE_DERIV     1
CIS_N_ROOTS     5
CIS_SINGLETS    true
CIS_TRIPLETS    false
MEM_TOTAL       4000
MEM_STATIC      100
MAX_SCF_CYCLES 200
MAX_CIS_CYCLES 200
$end

